10	6	3.0
2 5 1 1 2 2 3 3 4 2 6 5 4 1 4 2 8 5 4 6 7
2 3 2 4 5 9 6 1 5 2 9 3 1 4 5 5 4 6 2
2 5 1 4 3 3 4 3 5 2 6 5 2 4 4 6 4
2 1 2 2 1 5 7
2 2 1 2 5 6 5 1 5 2 2 3 2 5 1 6 9
2 1 2 6 3 2 6 3 6 6 6
2 4 1 1 3 9 5 8 6 6 2 1 8 5 6
2 3 1 3 3 9 4 3 4 1 6 2 4 3 4 5 1
2 3 1 4 2 1 6 9 1 3 9
2 4 1 9 2 6 3 1 6 8 2 4 3 5 6
